DIMACS_lns/graph-1000-28.col
p edge 1000 1842
e 2 252
e 2 329
e 2 112
e 2 558
e 2 335
e 2 366
e 3 693
e 3 874
e 3 466
e 3 437
e 3 346
e 3 162
e 3 677
e 4 34
e 4 893
e 4 157
e 5 207
e 5 86
e 5 39
e 5 258
e 7 383
e 7 645
e 7 787
e 9 613
e 9 117
e 9 666
e 9 992
e 12 937
e 12 86
e 12 335
e 12 523
e 12 747
e 12 757
e 12 142
e 12 397
e 15 807
e 15 804
e 15 969
e 15 624
e 16 601
e 16 989
e 16 895
e 16 131
e 16 880
e 16 621
e 17 24
e 17 938
e 17 599
e 17 464
e 17 216
e 17 224
e 17 271
e 18 161
e 18 810
e 18 536
e 18 960
e 18 86
e 19 923
e 19 949
e 19 667
e 20 773
e 20 182
e 20 536
e 20 174
e 20 398
e 21 978
e 21 927
e 21 903
e 21 852
e 22 444
e 22 559
e 22 512
e 22 528
e 22 597
e 23 503
e 23 410
e 23 589
e 23 310
e 23 928
e 24 703
e 24 47
e 24 72
e 24 317
e 25 97
e 25 333
e 25 148
e 25 545
e 25 513
e 25 385
e 27 182
e 27 176
e 27 704
e 27 947
e 28 248
e 28 934
e 28 776
e 28 467
e 29 486
e 29 348
e 29 857
e 29 854
e 29 455
e 30 581
e 30 690
e 30 111
e 30 565
e 30 501
e 31 879
e 31 814
e 31 487
e 31 323
e 31 614
e 31 65
e 34 400
e 34 712
e 35 965
e 35 955
e 35 230
e 36 316
e 36 765
e 36 218
e 36 283
e 37 136
e 37 184
e 37 652
e 38 584
e 38 105
e 38 492
e 38 422
e 39 420
e 39 433
e 39 979
e 39 575
e 40 377
e 40 601
e 40 863
e 40 632
e 40 664
e 40 546
e 41 317
e 41 438
e 41 950
e 41 793
e 41 649
e 41 927
e 42 661
e 42 411
e 42 86
e 44 730
e 44 801
e 44 795
e 45 614
e 45 413
e 45 428
e 45 750
e 45 121
e 45 316
e 45 773
e 46 770
e 46 445
e 46 452
e 46 909
e 47 951
e 47 376
e 47 568
e 48 425
e 48 342
e 48 372
e 48 988
e 49 736
e 49 114
e 49 249
e 49 426
e 49 418
e 49 532
e 51 762
e 51 54
e 51 475
e 51 327
e 51 911
e 53 763
e 53 284
e 53 500
e 54 658
e 54 598
e 54 533
e 54 526
e 54 915
e 54 898
e 54 578
e 55 879
e 55 600
e 55 708
e 56 910
e 56 72
e 56 891
e 56 219
e 56 484
e 56 327
e 57 507
e 57 317
e 57 867
e 57 182
e 57 739
e 57 950
e 57 543
e 57 614
e 57 556
e 57 581
e 60 413
e 60 514
e 60 274
e 60 949
e 60 480
e 61 660
e 61 112
e 61 605
e 61 871
e 61 673
e 61 413
e 62 762
e 62 717
e 62 501
e 64 468
e 64 509
e 64 65
e 65 864
e 65 589
e 67 336
e 67 797
e 67 402
e 67 440
e 67 137
e 67 986
e 68 669
e 68 604
e 68 346
e 68 658
e 68 987
e 68 326
e 68 367
e 69 369
e 69 462
e 69 568
e 69 213
e 69 601
e 69 193
e 70 509
e 70 471
e 70 177
e 71 526
e 71 184
e 71 153
e 72 438
e 72 100
e 73 319
e 73 878
e 73 83
e 74 775
e 74 304
e 74 665
e 76 278
e 76 503
e 76 907
e 76 998
e 76 512
e 76 773
e 77 144
e 77 991
e 77 828
e 77 135
e 77 604
e 77 449
e 78 214
e 78 252
e 78 493
e 79 704
e 79 149
e 79 634
e 80 841
e 80 523
e 80 828
e 80 409
e 80 777
e 80 712
e 81 572
e 81 887
e 81 101
e 81 917
e 83 420
e 83 111
e 84 100
e 84 866
e 84 485
e 84 973
e 86 816
e 86 307
e 87 580
e 87 272
e 87 99
e 87 380
e 88 326
e 88 267
e 88 432
e 88 188
e 89 747
e 89 453
e 89 918
e 89 525
e 91 887
e 91 513
e 91 947
e 91 568
e 91 850
e 91 615
e 92 706
e 92 255
e 92 160
e 92 322
e 92 143
e 92 211
e 93 119
e 93 394
e 93 329
e 93 179
e 93 449
e 93 219
e 93 536
e 93 846
e 95 592
e 95 203
e 95 214
e 95 606
e 97 676
e 97 439
e 97 509
e 97 476
e 97 874
e 99 922
e 99 523
e 100 885
e 101 684
e 101 155
e 101 104
e 103 971
e 103 949
e 103 106
e 104 108
e 104 736
e 104 188
e 104 547
e 105 769
e 105 545
e 105 557
e 105 745
e 105 141
e 106 415
e 106 985
e 106 344
e 107 906
e 107 202
e 107 575
e 108 664
e 108 827
e 108 202
e 111 167
e 111 325
e 111 346
e 111 708
e 111 972
e 111 227
e 112 303
e 112 850
e 113 712
e 113 224
e 113 882
e 114 543
e 114 856
e 114 895
e 114 421
e 114 518
e 114 946
e 115 516
e 115 417
e 115 504
e 117 757
e 117 739
e 119 294
e 119 815
e 119 919
e 119 509
e 121 479
e 121 577
e 121 375
e 121 178
e 121 645
e 121 338
e 122 918
e 122 378
e 122 634
e 123 251
e 123 177
e 123 638
e 123 382
e 123 369
e 123 752
e 125 771
e 125 705
e 125 471
e 125 702
e 126 502
e 126 654
e 126 426
e 126 192
e 126 608
e 126 702
e 128 360
e 128 302
e 128 515
e 130 549
e 130 558
e 130 221
e 130 899
e 131 702
e 131 763
e 132 873
e 132 200
e 132 771
e 132 377
e 133 422
e 133 991
e 133 649
e 134 867
e 134 940
e 134 841
e 134 146
e 135 811
e 135 453
e 135 394
e 135 659
e 136 966
e 136 706
e 136 385
e 136 495
e 136 707
e 137 474
e 137 613
e 137 975
e 137 708
e 137 245
e 137 693
e 139 737
e 139 559
e 139 262
e 139 215
e 139 528
e 139 703
e 139 594
e 141 739
e 141 710
e 141 897
e 141 405
e 142 155
e 142 711
e 143 868
e 143 309
e 144 934
e 144 931
e 144 436
e 144 246
e 145 499
e 145 918
e 145 824
e 145 775
e 145 547
e 146 917
e 146 721
e 147 969
e 147 461
e 147 203
e 147 749
e 147 901
e 147 474
e 148 887
e 148 373
e 148 759
e 148 574
e 149 591
e 149 339
e 149 159
e 150 664
e 150 759
e 150 988
e 150 567
e 150 961
e 151 965
e 151 779
e 151 628
e 151 855
e 153 882
e 153 330
e 153 787
e 153 621
e 153 282
e 153 350
e 154 465
e 154 524
e 154 512
e 154 577
e 155 931
e 155 895
e 155 759
e 155 225
e 156 587
e 156 684
e 156 410
e 157 495
e 157 543
e 157 507
e 157 863
e 158 959
e 158 626
e 158 207
e 158 350
e 159 857
e 159 197
e 160 733
e 160 785
e 160 969
e 161 610
e 161 165
e 161 971
e 161 661
e 161 913
e 161 660
e 161 952
e 161 871
e 161 837
e 162 178
e 162 233
e 162 299
e 164 221
e 164 251
e 164 563
e 164 732
e 165 265
e 165 247
e 165 558
e 165 275
e 167 497
e 167 663
e 168 640
e 168 272
e 168 520
e 168 187
e 168 803
e 168 519
e 172 626
e 172 206
e 172 462
e 172 610
e 172 867
e 174 894
e 174 265
e 174 798
e 174 603
e 176 274
e 176 691
e 177 397
e 178 788
e 179 779
e 179 913
e 179 864
e 179 580
e 179 320
e 179 401
e 181 514
e 181 555
e 181 397
e 182 323
e 182 296
e 182 653
e 182 575
e 182 193
e 182 742
e 182 612
e 184 558
e 186 420
e 186 684
e 186 414
e 187 354
e 187 857
e 187 892
e 187 367
e 188 365
e 188 615
e 188 351
e 188 437
e 189 389
e 189 774
e 189 223
e 189 606
e 192 238
e 192 841
e 192 743
e 192 467
e 192 721
e 192 402
e 193 797
e 193 545
e 193 203
e 193 241
e 196 492
e 196 224
e 196 420
e 197 479
e 197 446
e 197 417
e 197 566
e 198 627
e 198 936
e 198 659
e 198 313
e 198 605
e 199 836
e 199 434
e 199 780
e 200 484
e 200 684
e 200 528
e 200 265
e 200 712
e 201 774
e 201 438
e 201 381
e 201 604
e 201 804
e 201 698
e 202 417
e 202 723
e 203 819
e 203 890
e 203 896
e 205 568
e 205 452
e 205 557
e 205 715
e 205 522
e 205 917
e 205 722
e 206 320
e 206 287
e 206 742
e 206 775
e 206 715
e 206 487
e 206 717
e 207 723
e 207 500
e 207 305
e 209 859
e 209 316
e 209 563
e 209 631
e 211 226
e 211 324
e 211 959
e 212 298
e 212 962
e 212 541
e 212 339
e 213 375
e 213 651
e 214 277
e 214 804
e 214 523
e 214 601
e 214 609
e 215 669
e 215 658
e 215 449
e 215 422
e 215 706
e 215 888
e 215 462
e 216 379
e 216 419
e 216 989
e 217 389
e 217 299
e 217 930
e 218 920
e 218 555
e 218 751
e 218 255
e 218 849
e 219 727
e 219 445
e 219 742
e 219 526
e 219 883
e 219 904
e 219 949
e 221 383
e 221 968
e 221 910
e 223 438
e 223 315
e 223 912
e 223 826
e 223 798
e 224 764
e 224 896
e 225 639
e 225 907
e 225 370
e 225 722
e 225 916
e 226 555
e 226 587
e 226 907
e 226 425
e 226 594
e 226 441
e 226 774
e 227 906
e 227 875
e 227 877
e 230 654
e 230 893
e 230 821
e 230 410
e 231 275
e 231 546
e 231 855
e 232 737
e 232 494
e 232 968
e 232 307
e 232 911
e 233 840
e 233 897
e 233 303
e 234 850
e 234 413
e 234 807
e 234 369
e 234 337
e 235 284
e 235 691
e 235 532
e 235 584
e 235 286
e 235 751
e 237 899
e 237 992
e 237 802
e 237 949
e 237 922
e 237 336
e 238 420
e 238 389
e 238 642
e 238 848
e 239 916
e 239 768
e 239 294
e 239 750
e 241 745
e 241 408
e 241 491
e 241 992
e 241 548
e 242 567
e 242 828
e 242 869
e 245 537
e 245 630
e 245 562
e 245 487
e 246 773
e 246 473
e 247 506
e 247 638
e 248 358
e 248 319
e 248 987
e 248 785
e 248 899
e 249 836
e 249 428
e 249 277
e 249 426
e 249 752
e 250 912
e 250 336
e 250 913
e 251 729
e 251 620
e 251 335
e 251 525
e 251 754
e 251 510
e 251 469
e 252 811
e 252 443
e 252 504
e 252 476
e 255 562
e 255 866
e 257 869
e 257 376
e 257 428
e 258 314
e 258 439
e 259 435
e 259 710
e 259 695
e 259 888
e 262 307
e 262 415
e 265 894
e 265 919
e 265 697
e 267 275
e 267 455
e 268 739
e 268 940
e 268 399
e 268 694
e 268 572
e 268 882
e 269 684
e 269 649
e 269 695
e 269 617
e 269 322
e 269 852
e 270 960
e 270 913
e 270 613
e 270 430
e 271 625
e 271 964
e 271 922
e 272 476
e 272 978
e 272 278
e 272 558
e 273 679
e 273 465
e 273 797
e 273 744
e 273 479
e 274 573
e 274 975
e 274 370
e 274 468
e 274 729
e 274 631
e 275 642
e 275 435
e 277 750
e 277 934
e 277 507
e 277 727
e 278 744
e 278 523
e 278 695
e 279 860
e 279 804
e 279 354
e 281 529
e 281 814
e 281 788
e 282 730
e 282 614
e 282 331
e 282 566
e 283 609
e 283 344
e 283 690
e 283 850
e 283 765
e 284 969
e 284 477
e 284 765
e 284 409
e 284 639
e 284 645
e 286 654
e 286 900
e 286 932
e 286 594
e 286 975
e 286 700
e 287 723
e 287 864
e 287 500
e 287 897
e 287 971
e 288 425
e 288 946
e 288 327
e 288 899
e 292 483
e 292 701
e 292 608
e 292 571
e 293 887
e 293 388
e 293 649
e 294 663
e 294 969
e 294 840
e 296 890
e 296 839
e 296 927
e 296 390
e 298 455
e 298 576
e 298 658
e 298 600
e 299 500
e 299 374
e 299 915
e 299 877
e 300 971
e 300 640
e 300 995
e 300 933
e 300 516
e 300 920
e 301 728
e 301 543
e 301 952
e 301 898
e 301 617
e 302 519
e 302 999
e 302 722
e 302 601
e 303 949
e 303 595
e 303 802
e 303 878
e 303 736
e 304 562
e 304 885
e 304 615
e 304 620
e 304 401
e 304 691
e 305 880
e 305 581
e 306 620
e 306 670
e 306 314
e 307 359
e 307 836
e 307 519
e 307 960
e 307 917
e 309 961
e 309 834
e 309 464
e 309 382
e 309 907
e 309 538
e 310 337
e 310 617
e 310 895
e 312 653
e 312 534
e 312 695
e 312 738
e 313 453
e 313 464
e 314 848
e 314 736
e 315 627
e 315 751
e 316 477
e 317 987
e 317 339
e 317 409
e 319 683
e 319 355
e 320 490
e 320 548
e 320 358
e 320 556
e 320 906
e 320 774
e 322 810
e 322 856
e 322 741
e 322 695
e 322 746
e 322 560
e 323 871
e 324 877
e 324 726
e 324 745
e 325 521
e 325 348
e 326 392
e 326 438
e 327 788
e 327 481
e 327 864
e 329 868
e 329 898
e 330 388
e 330 377
e 330 454
e 330 513
e 330 403
e 330 475
e 331 740
e 331 520
e 331 365
e 331 649
e 333 961
e 333 438
e 333 373
e 333 577
e 335 541
e 335 434
e 336 986
e 336 979
e 337 866
e 337 947
e 337 422
e 337 606
e 338 770
e 338 709
e 339 568
e 339 919
e 339 729
e 342 447
e 342 869
e 344 823
e 344 543
e 344 614
e 344 397
e 346 587
e 346 768
e 348 820
e 348 484
e 349 546
e 349 745
e 349 904
e 349 955
e 349 816
e 350 575
e 351 787
e 351 679
e 351 500
e 354 932
e 354 977
e 354 667
e 354 471
e 355 473
e 355 800
e 357 919
e 357 501
e 357 986
e 358 533
e 358 649
e 359 790
e 359 873
e 359 378
e 359 930
e 360 529
e 360 873
e 360 382
e 365 654
e 365 686
e 365 721
e 365 871
e 366 717
e 366 704
e 366 749
e 366 432
e 366 592
e 367 477
e 367 774
e 367 549
e 367 777
e 367 999
e 367 842
e 369 873
e 370 884
e 370 416
e 372 622
e 372 793
e 372 430
e 372 930
e 372 518
e 373 821
e 374 701
e 374 449
e 374 377
e 374 461
e 374 797
e 375 632
e 375 974
e 375 837
e 376 921
e 376 992
e 377 798
e 377 868
e 377 444
e 377 821
e 377 888
e 377 539
e 378 765
e 378 984
e 378 764
e 379 991
e 379 603
e 379 929
e 379 442
e 379 660
e 380 455
e 380 474
e 381 544
e 381 823
e 381 703
e 381 780
e 381 459
e 382 972
e 382 497
e 383 493
e 383 849
e 383 862
e 383 909
e 385 681
e 385 576
e 385 983
e 385 682
e 387 949
e 387 701
e 387 826
e 388 440
e 388 840
e 388 392
e 388 445
e 388 785
e 389 513
e 389 553
e 389 855
e 390 519
e 390 958
e 390 417
e 390 646
e 391 974
e 391 788
e 391 698
e 392 474
e 392 563
e 394 500
e 394 814
e 394 642
e 394 475
e 394 967
e 394 441
e 395 856
e 395 419
e 395 504
e 395 520
e 397 703
e 397 690
e 398 515
e 398 573
e 398 769
e 398 710
e 399 502
e 399 937
e 399 403
e 399 723
e 400 827
e 400 492
e 400 495
e 401 595
e 401 983
e 402 522
e 402 921
e 403 730
e 403 598
e 403 592
e 404 915
e 404 427
e 404 928
e 404 481
e 404 517
e 405 828
e 405 422
e 405 537
e 405 682
e 408 936
e 408 968
e 408 906
e 409 886
e 409 885
e 409 630
e 409 435
e 409 501
e 410 524
e 410 418
e 410 887
e 410 503
e 411 701
e 411 578
e 413 591
e 413 524
e 413 683
e 413 539
e 414 918
e 414 580
e 415 635
e 415 986
e 415 951
e 416 820
e 416 977
e 416 759
e 417 549
e 417 464
e 418 810
e 419 712
e 419 507
e 419 895
e 420 949
e 420 839
e 420 852
e 421 709
e 421 546
e 421 918
e 422 710
e 422 494
e 423 798
e 423 624
e 423 518
e 425 722
e 426 595
e 427 697
e 427 969
e 428 913
e 430 440
e 432 683
e 432 977
e 432 546
e 432 972
e 432 944
e 433 874
e 433 481
e 433 880
e 433 586
e 434 506
e 434 783
e 434 640
e 434 938
e 434 559
e 435 769
e 435 673
e 435 920
e 436 706
e 436 967
e 436 524
e 437 523
e 437 797
e 437 947
e 437 743
e 437 691
e 438 803
e 438 578
e 439 789
e 439 443
e 439 670
e 440 609
e 441 823
e 441 961
e 442 499
e 442 479
e 442 589
e 442 915
e 443 740
e 443 831
e 443 922
e 443 670
e 444 571
e 445 915
e 445 853
e 446 789
e 446 978
e 446 456
e 446 490
e 447 459
e 447 648
e 451 738
e 451 617
e 451 807
e 451 716
e 452 652
e 452 814
e 453 896
e 453 871
e 454 462
e 454 798
e 455 864
e 455 479
e 456 697
e 456 733
e 456 915
e 456 677
e 459 775
e 461 852
e 462 605
e 462 584
e 462 713
e 464 926
e 464 774
e 464 875
e 465 727
e 465 655
e 465 960
e 466 491
e 466 676
e 467 770
e 467 657
e 467 962
e 468 940
e 468 951
e 468 595
e 469 834
e 469 580
e 469 878
e 469 848
e 469 742
e 471 516
e 471 683
e 471 548
e 472 961
e 472 770
e 472 641
e 472 546
e 473 808
e 474 919
e 474 987
e 474 765
e 475 574
e 480 742
e 480 808
e 480 651
e 481 598
e 481 895
e 481 759
e 482 582
e 482 558
e 482 823
e 483 617
e 483 691
e 483 897
e 484 701
e 484 808
e 484 870
e 484 827
e 485 682
e 485 716
e 486 790
e 486 646
e 486 864
e 486 892
e 487 534
e 490 626
e 491 960
e 491 530
e 492 884
e 493 686
e 493 636
e 493 885
e 493 526
e 494 508
e 494 663
e 495 623
e 497 572
e 499 742
e 499 694
e 501 704
e 501 622
e 502 752
e 502 521
e 502 825
e 502 903
e 502 758
e 503 522
e 503 966
e 503 998
e 504 670
e 506 706
e 506 944
e 507 770
e 507 752
e 508 860
e 508 659
e 508 513
e 508 966
e 509 721
e 509 825
e 510 780
e 510 756
e 512 900
e 512 946
e 512 733
e 512 623
e 513 667
e 513 896
e 514 517
e 515 544
e 515 636
e 515 533
e 516 991
e 517 741
e 517 882
e 518 917
e 518 717
e 518 938
e 519 977
e 519 539
e 519 705
e 520 560
e 521 883
e 522 702
e 522 831
e 522 729
e 523 967
e 525 872
e 525 803
e 525 694
e 526 744
e 526 622
e 528 715
e 529 911
e 530 846
e 530 532
e 530 964
e 532 631
e 533 666
e 533 595
e 534 744
e 534 893
e 535 852
e 535 906
e 535 973
e 536 825
e 536 538
e 537 737
e 537 648
e 537 747
e 538 740
e 538 670
e 538 932
e 539 711
e 541 548
e 541 969
e 543 827
e 543 584
e 543 826
e 543 974
e 544 586
e 544 968
e 545 793
e 545 900
e 545 706
e 546 653
e 546 864
e 547 789
e 547 642
e 547 890
e 547 598
e 553 991
e 553 565
e 555 657
e 555 737
e 556 722
e 556 992
e 556 815
e 556 977
e 557 820
e 557 762
e 557 897
e 558 594
e 558 854
e 558 780
e 559 802
e 559 828
e 559 627
e 560 797
e 562 726
e 562 703
e 563 591
e 563 759
e 563 755
e 565 895
e 565 859
e 566 944
e 566 903
e 566 665
e 567 754
e 568 591
e 571 721
e 571 816
e 573 827
e 573 784
e 573 757
e 573 854
e 574 944
e 574 851
e 575 971
e 575 984
e 576 622
e 576 653
e 577 695
e 577 968
e 580 917
e 580 892
e 581 802
e 582 777
e 582 929
e 584 755
e 584 823
e 584 940
e 584 585
e 584 756
e 585 796
e 585 827
e 586 765
e 586 772
e 586 730
e 586 870
e 587 959
e 592 911
e 594 627
e 594 884
e 595 814
e 597 936
e 597 842
e 597 609
e 597 869
e 598 617
e 599 904
e 599 811
e 599 715
e 600 754
e 600 635
e 600 917
e 601 781
e 601 772
e 603 738
e 604 937
e 605 606
e 606 910
e 606 967
e 608 688
e 608 882
e 609 613
e 609 676
e 609 657
e 610 996
e 612 628
e 612 856
e 614 929
e 615 639
e 617 795
e 617 828
e 620 790
e 621 752
e 622 642
e 623 686
e 624 811
e 625 739
e 625 635
e 625 648
e 626 886
e 626 635
e 626 967
e 626 900
e 627 862
e 627 958
e 628 686
e 628 999
e 630 840
e 630 712
e 631 872
e 632 789
e 632 968
e 634 783
e 634 979
e 635 831
e 636 751
e 638 867
e 638 742
e 638 872
e 641 770
e 641 661
e 642 915
e 642 652
e 642 900
e 645 984
e 645 898
e 645 691
e 645 929
e 645 862
e 646 820
e 648 983
e 648 933
e 649 743
e 651 959
e 652 919
e 653 987
e 653 816
e 654 762
e 655 688
e 655 912
e 655 738
e 655 841
e 656 691
e 656 700
e 656 898
e 656 863
e 657 694
e 657 770
e 658 853
e 658 983
e 659 952
e 661 728
e 661 979
e 663 793
e 663 780
e 664 825
e 664 926
e 665 899
e 666 859
e 666 727
e 669 952
e 669 942
e 670 932
e 673 828
e 677 998
e 677 679
e 681 802
e 681 909
e 682 798
e 682 979
e 684 921
e 684 793
e 686 846
e 686 913
e 688 700
e 688 906
e 688 967
e 690 741
e 690 887
e 691 740
e 693 927
e 694 797
e 698 975
e 698 965
e 698 715
e 698 968
e 701 825
e 702 785
e 703 729
e 704 942
e 705 824
e 706 836
e 707 761
e 707 854
e 708 819
e 709 716
e 709 761
e 710 938
e 710 742
e 711 795
e 712 742
e 713 966
e 713 893
e 715 762
e 717 855
e 717 977
e 722 727
e 722 883
e 723 862
e 726 853
e 728 952
e 729 742
e 729 928
e 732 880
e 732 849
e 732 759
e 736 814
e 736 892
e 738 969
e 738 978
e 738 989
e 739 764
e 739 784
e 739 842
e 740 967
e 741 984
e 742 916
e 742 797
e 743 851
e 744 923
e 745 819
e 746 989
e 746 800
e 747 772
e 748 872
e 748 972
e 748 950
e 749 779
e 752 758
e 752 879
e 754 816
e 754 896
e 755 820
e 756 886
e 756 802
e 756 787
e 758 906
e 761 826
e 762 973
e 763 962
e 763 995
e 763 936
e 764 811
e 768 805
e 770 963
e 771 922
e 771 883
e 773 931
e 773 875
e 774 978
e 776 870
e 776 894
e 777 800
e 779 845
e 779 923
e 780 841
e 780 827
e 781 819
e 781 805
e 783 921
e 783 869
e 784 814
e 787 977
e 787 899
e 788 853
e 788 883
e 789 837
e 793 978
e 793 885
e 796 801
e 796 965
e 796 932
e 798 871
e 798 851
e 800 849
e 801 933
e 802 807
e 802 962
e 803 805
e 803 983
e 803 933
e 803 870
e 804 842
e 804 985
e 807 841
e 810 833
e 811 852
e 811 884
e 814 996
e 815 862
e 815 880
e 815 828
e 816 979
e 819 979
e 819 901
e 819 860
e 821 841
e 823 961
e 823 965
e 824 927
e 825 986
e 826 929
e 826 955
e 828 872
e 828 904
e 831 851
e 833 863
e 833 930
e 834 850
e 839 958
e 839 841
e 842 869
e 842 891
e 845 894
e 845 966
e 851 985
e 851 978
e 857 949
e 862 912
e 864 989
e 871 921
e 871 886
e 871 950
e 873 988
e 874 895
e 875 926
e 879 942
e 882 987
e 883 893
e 890 988
e 890 964
e 891 964
e 891 963
e 894 995
e 897 975
e 901 915
e 910 919
e 913 977
e 916 947
e 923 931
e 930 947
e 933 999
e 937 974
e 942 978
e 944 971
e 962 963
e 974 996
