txt_Ins/graph-1000-28.txt
n 1000
e 1 251
e 1 328
e 1 111
e 1 557
e 1 334
e 1 365
e 2 692
e 2 873
e 2 465
e 2 436
e 2 345
e 2 161
e 2 676
e 3 33
e 3 892
e 3 156
e 4 206
e 4 85
e 4 38
e 4 257
e 6 382
e 6 644
e 6 786
e 8 612
e 8 116
e 8 665
e 8 991
e 11 936
e 11 85
e 11 334
e 11 522
e 11 746
e 11 756
e 11 141
e 11 396
e 14 806
e 14 803
e 14 968
e 14 623
e 15 600
e 15 988
e 15 894
e 15 130
e 15 879
e 15 620
e 16 23
e 16 937
e 16 598
e 16 463
e 16 215
e 16 223
e 16 270
e 17 160
e 17 809
e 17 535
e 17 959
e 17 85
e 18 922
e 18 948
e 18 666
e 19 772
e 19 181
e 19 535
e 19 173
e 19 397
e 20 977
e 20 926
e 20 902
e 20 851
e 21 443
e 21 558
e 21 511
e 21 527
e 21 596
e 22 502
e 22 409
e 22 588
e 22 309
e 22 927
e 23 702
e 23 46
e 23 71
e 23 316
e 24 96
e 24 332
e 24 147
e 24 544
e 24 512
e 24 384
e 26 181
e 26 175
e 26 703
e 26 946
e 27 247
e 27 933
e 27 775
e 27 466
e 28 485
e 28 347
e 28 856
e 28 853
e 28 454
e 29 580
e 29 689
e 29 110
e 29 564
e 29 500
e 30 878
e 30 813
e 30 486
e 30 322
e 30 613
e 30 64
e 33 399
e 33 711
e 34 964
e 34 954
e 34 229
e 35 315
e 35 764
e 35 217
e 35 282
e 36 135
e 36 183
e 36 651
e 37 583
e 37 104
e 37 491
e 37 421
e 38 419
e 38 432
e 38 978
e 38 574
e 39 376
e 39 600
e 39 862
e 39 631
e 39 663
e 39 545
e 40 316
e 40 437
e 40 949
e 40 792
e 40 648
e 40 926
e 41 660
e 41 410
e 41 85
e 43 729
e 43 800
e 43 794
e 44 613
e 44 412
e 44 427
e 44 749
e 44 120
e 44 315
e 44 772
e 45 769
e 45 444
e 45 451
e 45 908
e 46 950
e 46 375
e 46 567
e 47 424
e 47 341
e 47 371
e 47 987
e 48 735
e 48 113
e 48 248
e 48 425
e 48 417
e 48 531
e 50 761
e 50 53
e 50 474
e 50 326
e 50 910
e 52 762
e 52 283
e 52 499
e 53 657
e 53 597
e 53 532
e 53 525
e 53 914
e 53 897
e 53 577
e 54 878
e 54 599
e 54 707
e 55 909
e 55 71
e 55 890
e 55 218
e 55 483
e 55 326
e 56 506
e 56 316
e 56 866
e 56 181
e 56 738
e 56 949
e 56 542
e 56 613
e 56 555
e 56 580
e 59 412
e 59 513
e 59 273
e 59 948
e 59 479
e 60 659
e 60 111
e 60 604
e 60 870
e 60 672
e 60 412
e 61 761
e 61 716
e 61 500
e 63 467
e 63 508
e 63 64
e 64 863
e 64 588
e 66 335
e 66 796
e 66 401
e 66 439
e 66 136
e 66 985
e 67 668
e 67 603
e 67 345
e 67 657
e 67 986
e 67 325
e 67 366
e 68 368
e 68 461
e 68 567
e 68 212
e 68 600
e 68 192
e 69 508
e 69 470
e 69 176
e 70 525
e 70 183
e 70 152
e 71 437
e 71 99
e 72 318
e 72 877
e 72 82
e 73 774
e 73 303
e 73 664
e 75 277
e 75 502
e 75 906
e 75 997
e 75 511
e 75 772
e 76 143
e 76 990
e 76 827
e 76 134
e 76 603
e 76 448
e 77 213
e 77 251
e 77 492
e 78 703
e 78 148
e 78 633
e 79 840
e 79 522
e 79 827
e 79 408
e 79 776
e 79 711
e 80 571
e 80 886
e 80 100
e 80 916
e 82 419
e 82 110
e 83 99
e 83 865
e 83 484
e 83 972
e 85 815
e 85 306
e 86 579
e 86 271
e 86 98
e 86 379
e 87 325
e 87 266
e 87 431
e 87 187
e 88 746
e 88 452
e 88 917
e 88 524
e 90 886
e 90 512
e 90 946
e 90 567
e 90 849
e 90 614
e 91 705
e 91 254
e 91 159
e 91 321
e 91 142
e 91 210
e 92 118
e 92 393
e 92 328
e 92 178
e 92 448
e 92 218
e 92 535
e 92 845
e 94 591
e 94 202
e 94 213
e 94 605
e 96 675
e 96 438
e 96 508
e 96 475
e 96 873
e 98 921
e 98 522
e 99 884
e 100 683
e 100 154
e 100 103
e 102 970
e 102 948
e 102 105
e 103 107
e 103 735
e 103 187
e 103 546
e 104 768
e 104 544
e 104 556
e 104 744
e 104 140
e 105 414
e 105 984
e 105 343
e 106 905
e 106 201
e 106 574
e 107 663
e 107 826
e 107 201
e 110 166
e 110 324
e 110 345
e 110 707
e 110 971
e 110 226
e 111 302
e 111 849
e 112 711
e 112 223
e 112 881
e 113 542
e 113 855
e 113 894
e 113 420
e 113 517
e 113 945
e 114 515
e 114 416
e 114 503
e 116 756
e 116 738
e 118 293
e 118 814
e 118 918
e 118 508
e 120 478
e 120 576
e 120 374
e 120 177
e 120 644
e 120 337
e 121 917
e 121 377
e 121 633
e 122 250
e 122 176
e 122 637
e 122 381
e 122 368
e 122 751
e 124 770
e 124 704
e 124 470
e 124 701
e 125 501
e 125 653
e 125 425
e 125 191
e 125 607
e 125 701
e 127 359
e 127 301
e 127 514
e 129 548
e 129 557
e 129 220
e 129 898
e 130 701
e 130 762
e 131 872
e 131 199
e 131 770
e 131 376
e 132 421
e 132 990
e 132 648
e 133 866
e 133 939
e 133 840
e 133 145
e 134 810
e 134 452
e 134 393
e 134 658
e 135 965
e 135 705
e 135 384
e 135 494
e 135 706
e 136 473
e 136 612
e 136 974
e 136 707
e 136 244
e 136 692
e 138 736
e 138 558
e 138 261
e 138 214
e 138 527
e 138 702
e 138 593
e 140 738
e 140 709
e 140 896
e 140 404
e 141 154
e 141 710
e 142 867
e 142 308
e 143 933
e 143 930
e 143 435
e 143 245
e 144 498
e 144 917
e 144 823
e 144 774
e 144 546
e 145 916
e 145 720
e 146 968
e 146 460
e 146 202
e 146 748
e 146 900
e 146 473
e 147 886
e 147 372
e 147 758
e 147 573
e 148 590
e 148 338
e 148 158
e 149 663
e 149 758
e 149 987
e 149 566
e 149 960
e 150 964
e 150 778
e 150 627
e 150 854
e 152 881
e 152 329
e 152 786
e 152 620
e 152 281
e 152 349
e 153 464
e 153 523
e 153 511
e 153 576
e 154 930
e 154 894
e 154 758
e 154 224
e 155 586
e 155 683
e 155 409
e 156 494
e 156 542
e 156 506
e 156 862
e 157 958
e 157 625
e 157 206
e 157 349
e 158 856
e 158 196
e 159 732
e 159 784
e 159 968
e 160 609
e 160 164
e 160 970
e 160 660
e 160 912
e 160 659
e 160 951
e 160 870
e 160 836
e 161 177
e 161 232
e 161 298
e 163 220
e 163 250
e 163 562
e 163 731
e 164 264
e 164 246
e 164 557
e 164 274
e 166 496
e 166 662
e 167 639
e 167 271
e 167 519
e 167 186
e 167 802
e 167 518
e 171 625
e 171 205
e 171 461
e 171 609
e 171 866
e 173 893
e 173 264
e 173 797
e 173 602
e 175 273
e 175 690
e 176 396
e 177 787
e 178 778
e 178 912
e 178 863
e 178 579
e 178 319
e 178 400
e 180 513
e 180 554
e 180 396
e 181 322
e 181 295
e 181 652
e 181 574
e 181 192
e 181 741
e 181 611
e 183 557
e 185 419
e 185 683
e 185 413
e 186 353
e 186 856
e 186 891
e 186 366
e 187 364
e 187 614
e 187 350
e 187 436
e 188 388
e 188 773
e 188 222
e 188 605
e 191 237
e 191 840
e 191 742
e 191 466
e 191 720
e 191 401
e 192 796
e 192 544
e 192 202
e 192 240
e 195 491
e 195 223
e 195 419
e 196 478
e 196 445
e 196 416
e 196 565
e 197 626
e 197 935
e 197 658
e 197 312
e 197 604
e 198 835
e 198 433
e 198 779
e 199 483
e 199 683
e 199 527
e 199 264
e 199 711
e 200 773
e 200 437
e 200 380
e 200 603
e 200 803
e 200 697
e 201 416
e 201 722
e 202 818
e 202 889
e 202 895
e 204 567
e 204 451
e 204 556
e 204 714
e 204 521
e 204 916
e 204 721
e 205 319
e 205 286
e 205 741
e 205 774
e 205 714
e 205 486
e 205 716
e 206 722
e 206 499
e 206 304
e 208 858
e 208 315
e 208 562
e 208 630
e 210 225
e 210 323
e 210 958
e 211 297
e 211 961
e 211 540
e 211 338
e 212 374
e 212 650
e 213 276
e 213 803
e 213 522
e 213 600
e 213 608
e 214 668
e 214 657
e 214 448
e 214 421
e 214 705
e 214 887
e 214 461
e 215 378
e 215 418
e 215 988
e 216 388
e 216 298
e 216 929
e 217 919
e 217 554
e 217 750
e 217 254
e 217 848
e 218 726
e 218 444
e 218 741
e 218 525
e 218 882
e 218 903
e 218 948
e 220 382
e 220 967
e 220 909
e 222 437
e 222 314
e 222 911
e 222 825
e 222 797
e 223 763
e 223 895
e 224 638
e 224 906
e 224 369
e 224 721
e 224 915
e 225 554
e 225 586
e 225 906
e 225 424
e 225 593
e 225 440
e 225 773
e 226 905
e 226 874
e 226 876
e 229 653
e 229 892
e 229 820
e 229 409
e 230 274
e 230 545
e 230 854
e 231 736
e 231 493
e 231 967
e 231 306
e 231 910
e 232 839
e 232 896
e 232 302
e 233 849
e 233 412
e 233 806
e 233 368
e 233 336
e 234 283
e 234 690
e 234 531
e 234 583
e 234 285
e 234 750
e 236 898
e 236 991
e 236 801
e 236 948
e 236 921
e 236 335
e 237 419
e 237 388
e 237 641
e 237 847
e 238 915
e 238 767
e 238 293
e 238 749
e 240 744
e 240 407
e 240 490
e 240 991
e 240 547
e 241 566
e 241 827
e 241 868
e 244 536
e 244 629
e 244 561
e 244 486
e 245 772
e 245 472
e 246 505
e 246 637
e 247 357
e 247 318
e 247 986
e 247 784
e 247 898
e 248 835
e 248 427
e 248 276
e 248 425
e 248 751
e 249 911
e 249 335
e 249 912
e 250 728
e 250 619
e 250 334
e 250 524
e 250 753
e 250 509
e 250 468
e 251 810
e 251 442
e 251 503
e 251 475
e 254 561
e 254 865
e 256 868
e 256 375
e 256 427
e 257 313
e 257 438
e 258 434
e 258 709
e 258 694
e 258 887
e 261 306
e 261 414
e 264 893
e 264 918
e 264 696
e 266 274
e 266 454
e 267 738
e 267 939
e 267 398
e 267 693
e 267 571
e 267 881
e 268 683
e 268 648
e 268 694
e 268 616
e 268 321
e 268 851
e 269 959
e 269 912
e 269 612
e 269 429
e 270 624
e 270 963
e 270 921
e 271 475
e 271 977
e 271 277
e 271 557
e 272 678
e 272 464
e 272 796
e 272 743
e 272 478
e 273 572
e 273 974
e 273 369
e 273 467
e 273 728
e 273 630
e 274 641
e 274 434
e 276 749
e 276 933
e 276 506
e 276 726
e 277 743
e 277 522
e 277 694
e 278 859
e 278 803
e 278 353
e 280 528
e 280 813
e 280 787
e 281 729
e 281 613
e 281 330
e 281 565
e 282 608
e 282 343
e 282 689
e 282 849
e 282 764
e 283 968
e 283 476
e 283 764
e 283 408
e 283 638
e 283 644
e 285 653
e 285 899
e 285 931
e 285 593
e 285 974
e 285 699
e 286 722
e 286 863
e 286 499
e 286 896
e 286 970
e 287 424
e 287 945
e 287 326
e 287 898
e 291 482
e 291 700
e 291 607
e 291 570
e 292 886
e 292 387
e 292 648
e 293 662
e 293 968
e 293 839
e 295 889
e 295 838
e 295 926
e 295 389
e 297 454
e 297 575
e 297 657
e 297 599
e 298 499
e 298 373
e 298 914
e 298 876
e 299 970
e 299 639
e 299 994
e 299 932
e 299 515
e 299 919
e 300 727
e 300 542
e 300 951
e 300 897
e 300 616
e 301 518
e 301 998
e 301 721
e 301 600
e 302 948
e 302 594
e 302 801
e 302 877
e 302 735
e 303 561
e 303 884
e 303 614
e 303 619
e 303 400
e 303 690
e 304 879
e 304 580
e 305 619
e 305 669
e 305 313
e 306 358
e 306 835
e 306 518
e 306 959
e 306 916
e 308 960
e 308 833
e 308 463
e 308 381
e 308 906
e 308 537
e 309 336
e 309 616
e 309 894
e 311 652
e 311 533
e 311 694
e 311 737
e 312 452
e 312 463
e 313 847
e 313 735
e 314 626
e 314 750
e 315 476
e 316 986
e 316 338
e 316 408
e 318 682
e 318 354
e 319 489
e 319 547
e 319 357
e 319 555
e 319 905
e 319 773
e 321 809
e 321 855
e 321 740
e 321 694
e 321 745
e 321 559
e 322 870
e 323 876
e 323 725
e 323 744
e 324 520
e 324 347
e 325 391
e 325 437
e 326 787
e 326 480
e 326 863
e 328 867
e 328 897
e 329 387
e 329 376
e 329 453
e 329 512
e 329 402
e 329 474
e 330 739
e 330 519
e 330 364
e 330 648
e 332 960
e 332 437
e 332 372
e 332 576
e 334 540
e 334 433
e 335 985
e 335 978
e 336 865
e 336 946
e 336 421
e 336 605
e 337 769
e 337 708
e 338 567
e 338 918
e 338 728
e 341 446
e 341 868
e 343 822
e 343 542
e 343 613
e 343 396
e 345 586
e 345 767
e 347 819
e 347 483
e 348 545
e 348 744
e 348 903
e 348 954
e 348 815
e 349 574
e 350 786
e 350 678
e 350 499
e 353 931
e 353 976
e 353 666
e 353 470
e 354 472
e 354 799
e 356 918
e 356 500
e 356 985
e 357 532
e 357 648
e 358 789
e 358 872
e 358 377
e 358 929
e 359 528
e 359 872
e 359 381
e 364 653
e 364 685
e 364 720
e 364 870
e 365 716
e 365 703
e 365 748
e 365 431
e 365 591
e 366 476
e 366 773
e 366 548
e 366 776
e 366 998
e 366 841
e 368 872
e 369 883
e 369 415
e 371 621
e 371 792
e 371 429
e 371 929
e 371 517
e 372 820
e 373 700
e 373 448
e 373 376
e 373 460
e 373 796
e 374 631
e 374 973
e 374 836
e 375 920
e 375 991
e 376 797
e 376 867
e 376 443
e 376 820
e 376 887
e 376 538
e 377 764
e 377 983
e 377 763
e 378 990
e 378 602
e 378 928
e 378 441
e 378 659
e 379 454
e 379 473
e 380 543
e 380 822
e 380 702
e 380 779
e 380 458
e 381 971
e 381 496
e 382 492
e 382 848
e 382 861
e 382 908
e 384 680
e 384 575
e 384 982
e 384 681
e 386 948
e 386 700
e 386 825
e 387 439
e 387 839
e 387 391
e 387 444
e 387 784
e 388 512
e 388 552
e 388 854
e 389 518
e 389 957
e 389 416
e 389 645
e 390 973
e 390 787
e 390 697
e 391 473
e 391 562
e 393 499
e 393 813
e 393 641
e 393 474
e 393 966
e 393 440
e 394 855
e 394 418
e 394 503
e 394 519
e 396 702
e 396 689
e 397 514
e 397 572
e 397 768
e 397 709
e 398 501
e 398 936
e 398 402
e 398 722
e 399 826
e 399 491
e 399 494
e 400 594
e 400 982
e 401 521
e 401 920
e 402 729
e 402 597
e 402 591
e 403 914
e 403 426
e 403 927
e 403 480
e 403 516
e 404 827
e 404 421
e 404 536
e 404 681
e 407 935
e 407 967
e 407 905
e 408 885
e 408 884
e 408 629
e 408 434
e 408 500
e 409 523
e 409 417
e 409 886
e 409 502
e 410 700
e 410 577
e 412 590
e 412 523
e 412 682
e 412 538
e 413 917
e 413 579
e 414 634
e 414 985
e 414 950
e 415 819
e 415 976
e 415 758
e 416 548
e 416 463
e 417 809
e 418 711
e 418 506
e 418 894
e 419 948
e 419 838
e 419 851
e 420 708
e 420 545
e 420 917
e 421 709
e 421 493
e 422 797
e 422 623
e 422 517
e 424 721
e 425 594
e 426 696
e 426 968
e 427 912
e 429 439
e 431 682
e 431 976
e 431 545
e 431 971
e 431 943
e 432 873
e 432 480
e 432 879
e 432 585
e 433 505
e 433 782
e 433 639
e 433 937
e 433 558
e 434 768
e 434 672
e 434 919
e 435 705
e 435 966
e 435 523
e 436 522
e 436 796
e 436 946
e 436 742
e 436 690
e 437 802
e 437 577
e 438 788
e 438 442
e 438 669
e 439 608
e 440 822
e 440 960
e 441 498
e 441 478
e 441 588
e 441 914
e 442 739
e 442 830
e 442 921
e 442 669
e 443 570
e 444 914
e 444 852
e 445 788
e 445 977
e 445 455
e 445 489
e 446 458
e 446 647
e 450 737
e 450 616
e 450 806
e 450 715
e 451 651
e 451 813
e 452 895
e 452 870
e 453 461
e 453 797
e 454 863
e 454 478
e 455 696
e 455 732
e 455 914
e 455 676
e 458 774
e 460 851
e 461 604
e 461 583
e 461 712
e 463 925
e 463 773
e 463 874
e 464 726
e 464 654
e 464 959
e 465 490
e 465 675
e 466 769
e 466 656
e 466 961
e 467 939
e 467 950
e 467 594
e 468 833
e 468 579
e 468 877
e 468 847
e 468 741
e 470 515
e 470 682
e 470 547
e 471 960
e 471 769
e 471 640
e 471 545
e 472 807
e 473 918
e 473 986
e 473 764
e 474 573
e 479 741
e 479 807
e 479 650
e 480 597
e 480 894
e 480 758
e 481 581
e 481 557
e 481 822
e 482 616
e 482 690
e 482 896
e 483 700
e 483 807
e 483 869
e 483 826
e 484 681
e 484 715
e 485 789
e 485 645
e 485 863
e 485 891
e 486 533
e 489 625
e 490 959
e 490 529
e 491 883
e 492 685
e 492 635
e 492 884
e 492 525
e 493 507
e 493 662
e 494 622
e 496 571
e 498 741
e 498 693
e 500 703
e 500 621
e 501 751
e 501 520
e 501 824
e 501 902
e 501 757
e 502 521
e 502 965
e 502 997
e 503 669
e 505 705
e 505 943
e 506 769
e 506 751
e 507 859
e 507 658
e 507 512
e 507 965
e 508 720
e 508 824
e 509 779
e 509 755
e 511 899
e 511 945
e 511 732
e 511 622
e 512 666
e 512 895
e 513 516
e 514 543
e 514 635
e 514 532
e 515 990
e 516 740
e 516 881
e 517 916
e 517 716
e 517 937
e 518 976
e 518 538
e 518 704
e 519 559
e 520 882
e 521 701
e 521 830
e 521 728
e 522 966
e 524 871
e 524 802
e 524 693
e 525 743
e 525 621
e 527 714
e 528 910
e 529 845
e 529 531
e 529 963
e 531 630
e 532 665
e 532 594
e 533 743
e 533 892
e 534 851
e 534 905
e 534 972
e 535 824
e 535 537
e 536 736
e 536 647
e 536 746
e 537 739
e 537 669
e 537 931
e 538 710
e 540 547
e 540 968
e 542 826
e 542 583
e 542 825
e 542 973
e 543 585
e 543 967
e 544 792
e 544 899
e 544 705
e 545 652
e 545 863
e 546 788
e 546 641
e 546 889
e 546 597
e 552 990
e 552 564
e 554 656
e 554 736
e 555 721
e 555 991
e 555 814
e 555 976
e 556 819
e 556 761
e 556 896
e 557 593
e 557 853
e 557 779
e 558 801
e 558 827
e 558 626
e 559 796
e 561 725
e 561 702
e 562 590
e 562 758
e 562 754
e 564 894
e 564 858
e 565 943
e 565 902
e 565 664
e 566 753
e 567 590
e 570 720
e 570 815
e 572 826
e 572 783
e 572 756
e 572 853
e 573 943
e 573 850
e 574 970
e 574 983
e 575 621
e 575 652
e 576 694
e 576 967
e 579 916
e 579 891
e 580 801
e 581 776
e 581 928
e 583 754
e 583 822
e 583 939
e 583 584
e 583 755
e 584 795
e 584 826
e 585 764
e 585 771
e 585 729
e 585 869
e 586 958
e 591 910
e 593 626
e 593 883
e 594 813
e 596 935
e 596 841
e 596 608
e 596 868
e 597 616
e 598 903
e 598 810
e 598 714
e 599 753
e 599 634
e 599 916
e 600 780
e 600 771
e 602 737
e 603 936
e 604 605
e 605 909
e 605 966
e 607 687
e 607 881
e 608 612
e 608 675
e 608 656
e 609 995
e 611 627
e 611 855
e 613 928
e 614 638
e 616 794
e 616 827
e 619 789
e 620 751
e 621 641
e 622 685
e 623 810
e 624 738
e 624 634
e 624 647
e 625 885
e 625 634
e 625 966
e 625 899
e 626 861
e 626 957
e 627 685
e 627 998
e 629 839
e 629 711
e 630 871
e 631 788
e 631 967
e 633 782
e 633 978
e 634 830
e 635 750
e 637 866
e 637 741
e 637 871
e 640 769
e 640 660
e 641 914
e 641 651
e 641 899
e 644 983
e 644 897
e 644 690
e 644 928
e 644 861
e 645 819
e 647 982
e 647 932
e 648 742
e 650 958
e 651 918
e 652 986
e 652 815
e 653 761
e 654 687
e 654 911
e 654 737
e 654 840
e 655 690
e 655 699
e 655 897
e 655 862
e 656 693
e 656 769
e 657 852
e 657 982
e 658 951
e 660 727
e 660 978
e 662 792
e 662 779
e 663 824
e 663 925
e 664 898
e 665 858
e 665 726
e 668 951
e 668 941
e 669 931
e 672 827
e 676 997
e 676 678
e 680 801
e 680 908
e 681 797
e 681 978
e 683 920
e 683 792
e 685 845
e 685 912
e 687 699
e 687 905
e 687 966
e 689 740
e 689 886
e 690 739
e 692 926
e 693 796
e 697 974
e 697 964
e 697 714
e 697 967
e 700 824
e 701 784
e 702 728
e 703 941
e 704 823
e 705 835
e 706 760
e 706 853
e 707 818
e 708 715
e 708 760
e 709 937
e 709 741
e 710 794
e 711 741
e 712 965
e 712 892
e 714 761
e 716 854
e 716 976
e 721 726
e 721 882
e 722 861
e 725 852
e 727 951
e 728 741
e 728 927
e 731 879
e 731 848
e 731 758
e 735 813
e 735 891
e 737 968
e 737 977
e 737 988
e 738 763
e 738 783
e 738 841
e 739 966
e 740 983
e 741 915
e 741 796
e 742 850
e 743 922
e 744 818
e 745 988
e 745 799
e 746 771
e 747 871
e 747 971
e 747 949
e 748 778
e 751 757
e 751 878
e 753 815
e 753 895
e 754 819
e 755 885
e 755 801
e 755 786
e 757 905
e 760 825
e 761 972
e 762 961
e 762 994
e 762 935
e 763 810
e 767 804
e 769 962
e 770 921
e 770 882
e 772 930
e 772 874
e 773 977
e 775 869
e 775 893
e 776 799
e 778 844
e 778 922
e 779 840
e 779 826
e 780 818
e 780 804
e 782 920
e 782 868
e 783 813
e 786 976
e 786 898
e 787 852
e 787 882
e 788 836
e 792 977
e 792 884
e 795 800
e 795 964
e 795 931
e 797 870
e 797 850
e 799 848
e 800 932
e 801 806
e 801 961
e 802 804
e 802 982
e 802 932
e 802 869
e 803 841
e 803 984
e 806 840
e 809 832
e 810 851
e 810 883
e 813 995
e 814 861
e 814 879
e 814 827
e 815 978
e 818 978
e 818 900
e 818 859
e 820 840
e 822 960
e 822 964
e 823 926
e 824 985
e 825 928
e 825 954
e 827 871
e 827 903
e 830 850
e 832 862
e 832 929
e 833 849
e 838 957
e 838 840
e 841 868
e 841 890
e 844 893
e 844 965
e 850 984
e 850 977
e 856 948
e 861 911
e 863 988
e 870 920
e 870 885
e 870 949
e 872 987
e 873 894
e 874 925
e 878 941
e 881 986
e 882 892
e 889 987
e 889 963
e 890 963
e 890 962
e 893 994
e 896 974
e 900 914
e 909 918
e 912 976
e 915 946
e 922 930
e 929 946
e 932 998
e 936 973
e 941 977
e 943 970
e 961 962
e 973 995
